CPXPARAM_TimeLimit                               3600
CPXPARAM_Read_DataCheck                          1
Tried aggregator 1 time.
MIP Presolve eliminated 1396 rows and 0 columns.
MIP Presolve modified 2612 coefficients.
Reduced MIP has 49664 rows, 22276 columns, and 231078 nonzeros.
Reduced MIP has 1575 binaries, 0 generals, 0 SOSs, and 0 indicators.
Presolve time = 0.03 sec. (63.74 ticks)
Found incumbent of value 8630.000000 after 0.08 sec. (116.57 ticks)
Probing fixed 0 vars, tightened 1 bounds.
Probing time = 0.01 sec. (12.94 ticks)
Tried aggregator 1 time.
Reduced MIP has 49664 rows, 22276 columns, and 231078 nonzeros.
Reduced MIP has 1575 binaries, 0 generals, 0 SOSs, and 0 indicators.
Presolve time = 0.08 sec. (93.30 ticks)
Probing time = 0.01 sec. (12.67 ticks)
MIP emphasis: balance optimality and feasibility.
MIP search method: dynamic search.
Parallel mode: deterministic, using up to 8 threads.
Root relaxation solution time = 28.66 sec. (12535.17 ticks)

        Nodes                                         Cuts/
   Node  Left     Objective  IInf  Best Integer    Best Bound    ItCnt     Gap

*     0+    0                         8630.0000      916.0000            89.39%
*     0+    0                         8245.0000      916.0000            88.89%
      0     0      916.0000  1324     8245.0000      916.0000    33038   88.89%
      0     0      920.8248  1199     8245.0000     Cuts: 517    98447   88.83%
      0     0      924.3770  1362     8245.0000    Cuts: 1374   220742   88.79%
      0     0      924.7466  1294     8245.0000    Cuts: 2228   284953   88.78%
      0     0      925.4862  1225     8245.0000    Cuts: 1296   313207   88.78%
      0     0      925.6500  1199     8245.0000    Cuts: 1135   359429   88.77%
      0     0      926.5532  1170     8245.0000     Cuts: 896   400365   88.76%
      0     0      927.0610  1209     8245.0000     Cuts: 878   538511   88.76%
      0     0      927.3832  1264     8245.0000    Cuts: 1350   607015   88.75%
      0     0      927.7115  1274     8245.0000    Cuts: 1572   656493   88.75%
      0     0      927.9710  1253     8245.0000    Cuts: 1494   699318   88.75%
      0     0      928.3971  1209     8245.0000    Cuts: 1066   760290   88.74%
      0     0      928.5477  1244     8245.0000    Cuts: 1574   784988   88.74%
      0     0      928.6973  1267     8245.0000    Cuts: 1080   814722   88.74%
      0     0      928.7813  1223     8245.0000     Cuts: 771   837805   88.74%
      0     0      928.8442  1125     8245.0000     Cuts: 907   868956   88.73%
      0     0      928.8940  1225     8245.0000    Cuts: 1143   907672   88.73%
      0     0      928.9741  1194     8245.0000     Cuts: 439   921621   88.73%
      0     0      929.0448  1148     8245.0000    Cuts: 1028   946557   88.73%
      0     0      929.1071   998     8245.0000    Cuts: 1032   991936   88.73%
      0     0      929.1448  1109     8245.0000     Cuts: 839  1023588   88.73%
Heuristic still looking.
Heuristic still looking.
Heuristic still looking.
      0     2      929.1448  1109     8245.0000      929.1448  1023588   88.73%
Elapsed time = 2100.61 sec. (2008798.00 ticks, tree = 0.01 MB, solutions = 2)
      1     3      930.5174  1209     8245.0000      931.7561  1061878   88.70%
      2     4      933.2647  1215     8245.0000      937.9598  1087860   88.62%
      3     3     1000.0000   885     8245.0000      937.9598  1079467   88.62%
      4     5      959.8644  1116     8245.0000      937.9598  1202569   88.62%
      5     7      973.0000  1032     8245.0000      937.9598  1267711   88.62%
      6     5      938.3419  1104     8245.0000      937.9598  1141613   88.62%
      7     9      945.6588  1154     8245.0000      955.8327  1354061   88.41%
      8     4     1232.0000  1091     8245.0000      955.8327  1166075   88.41%
      9    11     1232.0000  1087     8245.0000      955.8327  1460064   88.41%
     10    12     1232.0000  1121     8245.0000      955.8327  1503998   88.41%
Elapsed time = 3090.76 sec. (2352260.35 ticks, tree = 0.02 MB, solutions = 2)
     11    13     1232.0000  1113     8245.0000      955.8327  1505813   88.41%
     12    10      989.5737  1230     8245.0000      955.8327  1402705   88.41%
     13    13     1006.1501  1178     8245.0000      955.8327  1511676   88.41%
     14    14     1232.0000  1129     8245.0000      955.8327  1531014   88.41%
     15    14     1036.4963  1218     8245.0000      955.8327  1543159   88.41%
     16     6     1000.0000   875     8245.0000      955.8327  1205058   88.41%
     17    14     1000.0000   863     8245.0000      955.8327  1574863   88.41%
     18    15     1232.0334  1219     8245.0000      955.8327  1580521   88.41%
*    19+    5                         7998.0000      955.8327            88.05%
*    19+    5                         6961.0000      955.8327            86.27%
*    19+    5                         6766.0000      955.8327            85.87%
*    19+    5                         5527.0000      955.8327            82.71%
*    19+    5                         5523.0000      955.8327            82.69%
*    19+    5                         5150.0000      955.8327            81.44%
*    19+    5                         4908.0000      955.8327            80.53%
*    19+    5                         4803.0000      955.8327            80.10%
*    19+    5                         4800.0000      955.8327            80.09%
*    19+    5                         3984.0000      955.8327            76.01%
*    19+    5                         3979.0000      955.8327            75.98%
     19     7     1004.0000  1031     3979.0000      955.8327  1265664   75.98%
     20    15     1060.9450  1266     3979.0000      955.8327  1594852   75.98%
Elapsed time = 3486.31 sec. (2445019.74 ticks, tree = 0.08 MB, solutions = 13)
     21    18     1232.0000  1096     3979.0000      955.8327  1725309   75.98%
     22    19     1004.0000  1058     3979.0000      955.8327  1737846   75.98%
     23    20     1004.0000  1057     3979.0000      955.8327  1737952   75.98%
     26    16     1185.0345  1146     3979.0000      955.8327  1634833   75.98%
     28    19     1232.0000  1029     3979.0000      955.8327  1761059   75.98%
     29     6     1000.0010   940     3979.0000      955.8327  1388840   75.98%

Implied bound cuts applied:  857
Flow cuts applied:  65
Mixed integer rounding cuts applied:  358
Gomory fractional cuts applied:  2

Root node processing (before b&c):
  Real time             = 2100.47 sec. (2008630.95 ticks)
Parallel b&c, 8 threads:
  Real time             = 1500.20 sec. (507652.59 ticks)
  Sync time (average)   =  351.33 sec.
  Wait time (average)   =    0.02 sec.
                          ------------
Total (root+branch&cut) = 3600.67 sec. (2516283.55 ticks)
